(set-logic HORN)
(set-info :source |
    Benchmark: C_VC
    Output by Princess (http://www.philipp.ruemmer.org/princess.shtml)
|)
(set-info :status sat)
(declare-heap Heap Addr HeapObject
 defObj
 ((HeapObject 0)) (
  (
   (O_Int (getInt Int))
   (O_UInt (getUInt Int))
   (O_Addr (getAddr Addr))
   (defObj)
  )
))
(declare-fun inv_main13 (Heap AddrRange AddrRange AddrRange AddrRange AddrRange Int) Bool)
(declare-fun inv_main17 (Heap AddrRange AddrRange AddrRange AddrRange AddrRange Int Int) Bool)
(declare-fun inv_main19 (Heap AddrRange AddrRange AddrRange AddrRange AddrRange Int Int Int) Bool)
(declare-fun inv_main22 (Heap AddrRange AddrRange AddrRange AddrRange AddrRange Int Int) Bool)
(declare-fun inv_main24 (Heap AddrRange AddrRange AddrRange AddrRange AddrRange Int Int Int) Bool)
(declare-fun inv_main27 (Heap AddrRange AddrRange AddrRange AddrRange AddrRange Int Int) Bool)
(declare-fun inv_main29 (Heap AddrRange AddrRange AddrRange AddrRange AddrRange Int Int Int) Bool)
(declare-fun inv_main32 (Heap AddrRange AddrRange AddrRange AddrRange AddrRange Int Int) Bool)
(declare-fun inv_main34 (Heap AddrRange AddrRange AddrRange AddrRange AddrRange Int Int Int) Bool)
(declare-fun inv_main38 (Heap AddrRange AddrRange AddrRange AddrRange AddrRange Int Int Int) Bool)
(declare-fun inv_main8 (Heap AddrRange AddrRange AddrRange AddrRange AddrRange Int) Bool)
(assert (forall ((var0 Int) (var1 AddrRange) (var2 AddrRange) (var3 AddrRange) (var4 AddrRange) (var5 AddrRange) (var6 Int) (var7 Heap) (var8 AddrRange) (var9 AddrRange) (var10 AddrRange) (var11 AddrRange) (var12 Int) (var13 Heap) (var14 AddrRange) (var15 AddrRange) (var16 AddrRange) (var17 Int) (var18 Heap) (var19 AddrRange) (var20 AddrRange) (var21 Int) (var22 Heap) (var23 AddrRange) (var24 Int) (var25 Heap) (var26 Heap)) (or (not (and (and (and (and (and (= var26 emptyHeap) (and (= var25 (newBatchHeap (batchAlloc emptyHeap (O_Int var24) 100000))) (= var23 (newAddrRange (batchAlloc emptyHeap (O_Int var24) 100000))))) (and (and (= var22 (newBatchHeap (batchAlloc emptyHeap (O_Int var21) 100000))) (= var20 var23)) (= var19 (newAddrRange (batchAlloc emptyHeap (O_Int var21) 100000))))) (and (and (and (= var18 (newBatchHeap (batchAlloc emptyHeap (O_Int var17) 100000))) (= var16 var20)) (= var15 var19)) (= var14 (newAddrRange (batchAlloc emptyHeap (O_Int var17) 100000))))) (and (and (and (and (= var13 (newBatchHeap (batchAlloc emptyHeap (O_Int var12) 100000))) (= var11 var16)) (= var10 var15)) (= var9 var14)) (= var8 (newAddrRange (batchAlloc emptyHeap (O_Int var12) 100000))))) (and (and (and (and (and (= var7 (newBatchHeap (batchAlloc emptyHeap (O_Int var6) 100000))) (= var5 var11)) (= var4 var10)) (= var3 var9)) (= var2 var8)) (= var1 (newAddrRange (batchAlloc emptyHeap (O_Int var6) 100000)))))) (inv_main8 var7 var5 var4 var3 var2 var1 var0))))
(assert (forall ((var0 Int) (var1 Int) (var2 Int) (var3 Int) (var4 AddrRange) (var5 AddrRange) (var6 AddrRange) (var7 AddrRange) (var8 AddrRange) (var9 Heap)) (or (not (and (inv_main38 var9 var8 var7 var6 var5 var4 var3 var2 var1) (and (and (<= 0 (+ (+ 100000 (* (- 1) (+ var1 1))) (- 1))) (and (is-O_Int (read var9 (nthAddrRange var8 var1))) (is-O_Int (read var9 (nthAddrRange var4 var1))))) (= var0 (+ var1 1))))) (inv_main38 var9 var8 var7 var6 var5 var4 var3 var2 var0))))
(assert (forall ((var0 Int) (var1 Int) (var2 Int) (var3 AddrRange) (var4 AddrRange) (var5 AddrRange) (var6 AddrRange) (var7 AddrRange) (var8 Heap) (var9 Int) (var10 Int) (var11 Int) (var12 Int) (var13 AddrRange) (var14 AddrRange) (var15 AddrRange) (var16 AddrRange) (var17 AddrRange) (var18 Heap)) (or (not (and (inv_main34 var18 var17 var16 var15 var14 var13 var12 var11 var10) (and (and (and (not (<= 0 (+ (+ 100000 (* (- 1) (+ var9 1))) (- 1)))) (and (and (is-O_Int (read var18 (nthAddrRange var13 var11))) (is-O_Int (read var18 (nthAddrRange var13 var11)))) (and (and (and (and (and (and (and (= var8 (write var18 (nthAddrRange var13 var11) (O_Int var10))) (= var7 var17)) (= var6 var16)) (= var5 var15)) (= var4 var14)) (= var3 var13)) (= var2 var12)) (= var9 var11)))) (= var1 (+ var9 1))) (= var0 0)))) (inv_main38 var8 var7 var6 var5 var4 var3 var2 var1 var0))))
(assert (forall ((var0 Int) (var1 Int) (var2 Int) (var3 AddrRange) (var4 AddrRange) (var5 AddrRange) (var6 AddrRange) (var7 AddrRange) (var8 Heap)) (or (not (and (inv_main17 var8 var7 var6 var5 var4 var3 var2 var1) (and (is-O_Int (read var8 (nthAddrRange var7 var1))) (= var0 (getInt (read var8 (nthAddrRange var7 var1))))))) (inv_main19 var8 var7 var6 var5 var4 var3 var2 var1 var0))))
(assert (forall ((var0 Int) (var1 Int) (var2 Int) (var3 AddrRange) (var4 AddrRange) (var5 AddrRange) (var6 AddrRange) (var7 AddrRange) (var8 Heap)) (or (not (and (inv_main27 var8 var7 var6 var5 var4 var3 var2 var1) (and (is-O_Int (read var8 (nthAddrRange var5 var1))) (= var0 (getInt (read var8 (nthAddrRange var5 var1))))))) (inv_main29 var8 var7 var6 var5 var4 var3 var2 var1 var0))))
(assert (forall ((var0 Int) (var1 Int) (var2 AddrRange) (var3 AddrRange) (var4 AddrRange) (var5 AddrRange) (var6 AddrRange) (var7 Heap) (var8 Int) (var9 Int) (var10 Int) (var11 Int) (var12 AddrRange) (var13 AddrRange) (var14 AddrRange) (var15 AddrRange) (var16 AddrRange) (var17 Heap)) (or (not (and (inv_main34 var17 var16 var15 var14 var13 var12 var11 var10 var9) (and (and (<= 0 (+ (+ 100000 (* (- 1) (+ var8 1))) (- 1))) (and (and (is-O_Int (read var17 (nthAddrRange var12 var10))) (is-O_Int (read var17 (nthAddrRange var12 var10)))) (and (and (and (and (and (and (and (= var7 (write var17 (nthAddrRange var12 var10) (O_Int var9))) (= var6 var16)) (= var5 var15)) (= var4 var14)) (= var3 var13)) (= var2 var12)) (= var1 var11)) (= var8 var10)))) (= var0 (+ var8 1))))) (inv_main32 var7 var6 var5 var4 var3 var2 var1 var0))))
(assert (forall ((var0 Int) (var1 Int) (var2 AddrRange) (var3 AddrRange) (var4 AddrRange) (var5 AddrRange) (var6 AddrRange) (var7 Heap) (var8 Int) (var9 Int) (var10 Int) (var11 Int) (var12 AddrRange) (var13 AddrRange) (var14 AddrRange) (var15 AddrRange) (var16 AddrRange) (var17 Heap)) (or (not (and (inv_main29 var17 var16 var15 var14 var13 var12 var11 var10 var9) (and (and (not (<= 0 (+ (+ 100000 (* (- 1) (+ var8 1))) (- 1)))) (and (and (is-O_Int (read var17 (nthAddrRange var13 var10))) (is-O_Int (read var17 (nthAddrRange var13 var10)))) (and (and (and (and (and (and (and (= var7 (write var17 (nthAddrRange var13 var10) (O_Int var9))) (= var6 var16)) (= var5 var15)) (= var4 var14)) (= var3 var13)) (= var2 var12)) (= var1 var11)) (= var8 var10)))) (= var0 0)))) (inv_main32 var7 var6 var5 var4 var3 var2 var1 var0))))
(assert (forall ((var0 Int) (var1 Int) (var2 Int) (var3 AddrRange) (var4 AddrRange) (var5 AddrRange) (var6 AddrRange) (var7 AddrRange) (var8 Heap)) (or (not (and (inv_main32 var8 var7 var6 var5 var4 var3 var2 var1) (and (is-O_Int (read var8 (nthAddrRange var4 var1))) (= var0 (getInt (read var8 (nthAddrRange var4 var1))))))) (inv_main34 var8 var7 var6 var5 var4 var3 var2 var1 var0))))
(assert (forall ((var0 Int) (var1 Int) (var2 AddrRange) (var3 AddrRange) (var4 AddrRange) (var5 AddrRange) (var6 AddrRange) (var7 Heap) (var8 Int) (var9 Int) (var10 Int) (var11 Int) (var12 AddrRange) (var13 AddrRange) (var14 AddrRange) (var15 AddrRange) (var16 AddrRange) (var17 Heap)) (or (not (and (inv_main24 var17 var16 var15 var14 var13 var12 var11 var10 var9) (and (and (<= 0 (+ (+ 100000 (* (- 1) (+ var8 1))) (- 1))) (and (and (is-O_Int (read var17 (nthAddrRange var14 var10))) (is-O_Int (read var17 (nthAddrRange var14 var10)))) (and (and (and (and (and (and (and (= var7 (write var17 (nthAddrRange var14 var10) (O_Int var9))) (= var6 var16)) (= var5 var15)) (= var4 var14)) (= var3 var13)) (= var2 var12)) (= var1 var11)) (= var8 var10)))) (= var0 (+ var8 1))))) (inv_main22 var7 var6 var5 var4 var3 var2 var1 var0))))
(assert (forall ((var0 Int) (var1 Int) (var2 AddrRange) (var3 AddrRange) (var4 AddrRange) (var5 AddrRange) (var6 AddrRange) (var7 Heap) (var8 Int) (var9 Int) (var10 Int) (var11 Int) (var12 AddrRange) (var13 AddrRange) (var14 AddrRange) (var15 AddrRange) (var16 AddrRange) (var17 Heap)) (or (not (and (inv_main19 var17 var16 var15 var14 var13 var12 var11 var10 var9) (and (and (not (<= 0 (+ (+ 100000 (* (- 1) (+ var8 1))) (- 1)))) (and (and (is-O_Int (read var17 (nthAddrRange var15 var10))) (is-O_Int (read var17 (nthAddrRange var15 var10)))) (and (and (and (and (and (and (and (= var7 (write var17 (nthAddrRange var15 var10) (O_Int var9))) (= var6 var16)) (= var5 var15)) (= var4 var14)) (= var3 var13)) (= var2 var12)) (= var1 var11)) (= var8 var10)))) (= var0 0)))) (inv_main22 var7 var6 var5 var4 var3 var2 var1 var0))))
(assert (forall ((var0 Int) (var1 Int) (var2 AddrRange) (var3 AddrRange) (var4 AddrRange) (var5 AddrRange) (var6 AddrRange) (var7 Heap)) (or (not (and (inv_main8 var7 var6 var5 var4 var3 var2 var1) (= var0 0))) (inv_main13 var7 var6 var5 var4 var3 var2 var0))))
(assert (forall ((var0 Int) (var1 AddrRange) (var2 AddrRange) (var3 AddrRange) (var4 AddrRange) (var5 AddrRange) (var6 Int) (var7 Heap) (var8 Int) (var9 Int) (var10 AddrRange) (var11 AddrRange) (var12 AddrRange) (var13 AddrRange) (var14 AddrRange) (var15 Heap)) (or (not (and (inv_main13 var15 var14 var13 var12 var11 var10 var9) (and (and (<= 0 (+ (+ 100000 (* (- 1) (+ var8 1))) (- 1))) (and (and (is-O_Int (read var15 (nthAddrRange var14 var9))) (is-O_Int (read var15 (nthAddrRange var14 var9)))) (and (and (and (and (and (and (= var7 (write var15 (nthAddrRange var14 var9) (O_Int var6))) (= var5 var14)) (= var4 var13)) (= var3 var12)) (= var2 var11)) (= var1 var10)) (= var8 var9)))) (= var0 (+ var8 1))))) (inv_main13 var7 var5 var4 var3 var2 var1 var0))))
(assert (forall ((var0 Int) (var1 Int) (var2 Int) (var3 AddrRange) (var4 AddrRange) (var5 AddrRange) (var6 AddrRange) (var7 AddrRange) (var8 Heap)) (or (not (and (inv_main22 var8 var7 var6 var5 var4 var3 var2 var1) (and (is-O_Int (read var8 (nthAddrRange var6 var1))) (= var0 (getInt (read var8 (nthAddrRange var6 var1))))))) (inv_main24 var8 var7 var6 var5 var4 var3 var2 var1 var0))))
(assert (forall ((var0 Int) (var1 Int) (var2 AddrRange) (var3 AddrRange) (var4 AddrRange) (var5 AddrRange) (var6 AddrRange) (var7 Heap) (var8 Int) (var9 Int) (var10 Int) (var11 Int) (var12 AddrRange) (var13 AddrRange) (var14 AddrRange) (var15 AddrRange) (var16 AddrRange) (var17 Heap)) (or (not (and (inv_main29 var17 var16 var15 var14 var13 var12 var11 var10 var9) (and (and (<= 0 (+ (+ 100000 (* (- 1) (+ var8 1))) (- 1))) (and (and (is-O_Int (read var17 (nthAddrRange var13 var10))) (is-O_Int (read var17 (nthAddrRange var13 var10)))) (and (and (and (and (and (and (and (= var7 (write var17 (nthAddrRange var13 var10) (O_Int var9))) (= var6 var16)) (= var5 var15)) (= var4 var14)) (= var3 var13)) (= var2 var12)) (= var1 var11)) (= var8 var10)))) (= var0 (+ var8 1))))) (inv_main27 var7 var6 var5 var4 var3 var2 var1 var0))))
(assert (forall ((var0 Int) (var1 Int) (var2 AddrRange) (var3 AddrRange) (var4 AddrRange) (var5 AddrRange) (var6 AddrRange) (var7 Heap) (var8 Int) (var9 Int) (var10 Int) (var11 Int) (var12 AddrRange) (var13 AddrRange) (var14 AddrRange) (var15 AddrRange) (var16 AddrRange) (var17 Heap)) (or (not (and (inv_main24 var17 var16 var15 var14 var13 var12 var11 var10 var9) (and (and (not (<= 0 (+ (+ 100000 (* (- 1) (+ var8 1))) (- 1)))) (and (and (is-O_Int (read var17 (nthAddrRange var14 var10))) (is-O_Int (read var17 (nthAddrRange var14 var10)))) (and (and (and (and (and (and (and (= var7 (write var17 (nthAddrRange var14 var10) (O_Int var9))) (= var6 var16)) (= var5 var15)) (= var4 var14)) (= var3 var13)) (= var2 var12)) (= var1 var11)) (= var8 var10)))) (= var0 0)))) (inv_main27 var7 var6 var5 var4 var3 var2 var1 var0))))
(assert (forall ((var0 Int) (var1 Int) (var2 AddrRange) (var3 AddrRange) (var4 AddrRange) (var5 AddrRange) (var6 AddrRange) (var7 Heap) (var8 Int) (var9 Int) (var10 Int) (var11 Int) (var12 AddrRange) (var13 AddrRange) (var14 AddrRange) (var15 AddrRange) (var16 AddrRange) (var17 Heap)) (or (not (and (inv_main19 var17 var16 var15 var14 var13 var12 var11 var10 var9) (and (and (<= 0 (+ (+ 100000 (* (- 1) (+ var8 1))) (- 1))) (and (and (is-O_Int (read var17 (nthAddrRange var15 var10))) (is-O_Int (read var17 (nthAddrRange var15 var10)))) (and (and (and (and (and (and (and (= var7 (write var17 (nthAddrRange var15 var10) (O_Int var9))) (= var6 var16)) (= var5 var15)) (= var4 var14)) (= var3 var13)) (= var2 var12)) (= var1 var11)) (= var8 var10)))) (= var0 (+ var8 1))))) (inv_main17 var7 var6 var5 var4 var3 var2 var1 var0))))
(assert (forall ((var0 Int) (var1 Int) (var2 AddrRange) (var3 AddrRange) (var4 AddrRange) (var5 AddrRange) (var6 AddrRange) (var7 Int) (var8 Heap) (var9 Int) (var10 Int) (var11 AddrRange) (var12 AddrRange) (var13 AddrRange) (var14 AddrRange) (var15 AddrRange) (var16 Heap)) (or (not (and (inv_main13 var16 var15 var14 var13 var12 var11 var10) (and (and (and (not (<= 0 (+ (+ 100000 (* (- 1) (+ var9 1))) (- 1)))) (and (and (is-O_Int (read var16 (nthAddrRange var15 var10))) (is-O_Int (read var16 (nthAddrRange var15 var10)))) (and (and (and (and (and (and (= var8 (write var16 (nthAddrRange var15 var10) (O_Int var7))) (= var6 var15)) (= var5 var14)) (= var4 var13)) (= var3 var12)) (= var2 var11)) (= var9 var10)))) (= var1 (+ var9 1))) (= var0 0)))) (inv_main17 var8 var6 var5 var4 var3 var2 var1 var0))))
(assert (forall ((var0 Int) (var1 AddrRange) (var2 AddrRange) (var3 AddrRange) (var4 AddrRange) (var5 AddrRange) (var6 Heap)) (not (and (inv_main13 var6 var5 var4 var3 var2 var1 var0) (not (is-O_Int (read var6 (nthAddrRange var5 var0))))))))
(assert (forall ((var0 Int) (var1 AddrRange) (var2 AddrRange) (var3 AddrRange) (var4 AddrRange) (var5 AddrRange) (var6 Heap)) (not (and (inv_main13 var6 var5 var4 var3 var2 var1 var0) (and (is-O_Int (read var6 (nthAddrRange var5 var0))) (not (within var5 (nthAddrRange var5 var0))))))))
(assert (forall ((var0 Int) (var1 AddrRange) (var2 AddrRange) (var3 AddrRange) (var4 AddrRange) (var5 AddrRange) (var6 Heap)) (not (and (inv_main13 var6 var5 var4 var3 var2 var1 var0) (and (is-O_Int (read var6 (nthAddrRange var5 var0))) (not (is-O_Int (read var6 (nthAddrRange var5 var0)))))))))
(assert (forall ((var0 Int) (var1 Int) (var2 AddrRange) (var3 AddrRange) (var4 AddrRange) (var5 AddrRange) (var6 AddrRange) (var7 Heap)) (not (and (inv_main17 var7 var6 var5 var4 var3 var2 var1 var0) (not (is-O_Int (read var7 (nthAddrRange var6 var0))))))))
(assert (forall ((var0 Int) (var1 Int) (var2 AddrRange) (var3 AddrRange) (var4 AddrRange) (var5 AddrRange) (var6 AddrRange) (var7 Heap)) (not (and (inv_main17 var7 var6 var5 var4 var3 var2 var1 var0) (and (is-O_Int (read var7 (nthAddrRange var6 var0))) (not (within var6 (nthAddrRange var6 var0))))))))
(assert (forall ((var0 Int) (var1 Int) (var2 Int) (var3 AddrRange) (var4 AddrRange) (var5 AddrRange) (var6 AddrRange) (var7 AddrRange) (var8 Heap)) (not (and (inv_main19 var8 var7 var6 var5 var4 var3 var2 var1 var0) (not (is-O_Int (read var8 (nthAddrRange var6 var1))))))))
(assert (forall ((var0 Int) (var1 Int) (var2 Int) (var3 AddrRange) (var4 AddrRange) (var5 AddrRange) (var6 AddrRange) (var7 AddrRange) (var8 Heap)) (not (and (inv_main19 var8 var7 var6 var5 var4 var3 var2 var1 var0) (and (is-O_Int (read var8 (nthAddrRange var6 var1))) (not (within var6 (nthAddrRange var6 var1))))))))
(assert (forall ((var0 Int) (var1 Int) (var2 Int) (var3 AddrRange) (var4 AddrRange) (var5 AddrRange) (var6 AddrRange) (var7 AddrRange) (var8 Heap)) (not (and (inv_main19 var8 var7 var6 var5 var4 var3 var2 var1 var0) (and (is-O_Int (read var8 (nthAddrRange var6 var1))) (not (is-O_Int (read var8 (nthAddrRange var6 var1)))))))))
(assert (forall ((var0 Int) (var1 Int) (var2 AddrRange) (var3 AddrRange) (var4 AddrRange) (var5 AddrRange) (var6 AddrRange) (var7 Heap)) (not (and (inv_main22 var7 var6 var5 var4 var3 var2 var1 var0) (not (is-O_Int (read var7 (nthAddrRange var5 var0))))))))
(assert (forall ((var0 Int) (var1 Int) (var2 AddrRange) (var3 AddrRange) (var4 AddrRange) (var5 AddrRange) (var6 AddrRange) (var7 Heap)) (not (and (inv_main22 var7 var6 var5 var4 var3 var2 var1 var0) (and (is-O_Int (read var7 (nthAddrRange var5 var0))) (not (within var5 (nthAddrRange var5 var0))))))))
(assert (forall ((var0 Int) (var1 Int) (var2 Int) (var3 AddrRange) (var4 AddrRange) (var5 AddrRange) (var6 AddrRange) (var7 AddrRange) (var8 Heap)) (not (and (inv_main24 var8 var7 var6 var5 var4 var3 var2 var1 var0) (not (is-O_Int (read var8 (nthAddrRange var5 var1))))))))
(assert (forall ((var0 Int) (var1 Int) (var2 Int) (var3 AddrRange) (var4 AddrRange) (var5 AddrRange) (var6 AddrRange) (var7 AddrRange) (var8 Heap)) (not (and (inv_main24 var8 var7 var6 var5 var4 var3 var2 var1 var0) (and (is-O_Int (read var8 (nthAddrRange var5 var1))) (not (within var5 (nthAddrRange var5 var1))))))))
(assert (forall ((var0 Int) (var1 Int) (var2 Int) (var3 AddrRange) (var4 AddrRange) (var5 AddrRange) (var6 AddrRange) (var7 AddrRange) (var8 Heap)) (not (and (inv_main24 var8 var7 var6 var5 var4 var3 var2 var1 var0) (and (is-O_Int (read var8 (nthAddrRange var5 var1))) (not (is-O_Int (read var8 (nthAddrRange var5 var1)))))))))
(assert (forall ((var0 Int) (var1 Int) (var2 AddrRange) (var3 AddrRange) (var4 AddrRange) (var5 AddrRange) (var6 AddrRange) (var7 Heap)) (not (and (inv_main27 var7 var6 var5 var4 var3 var2 var1 var0) (not (is-O_Int (read var7 (nthAddrRange var4 var0))))))))
(assert (forall ((var0 Int) (var1 Int) (var2 AddrRange) (var3 AddrRange) (var4 AddrRange) (var5 AddrRange) (var6 AddrRange) (var7 Heap)) (not (and (inv_main27 var7 var6 var5 var4 var3 var2 var1 var0) (and (is-O_Int (read var7 (nthAddrRange var4 var0))) (not (within var4 (nthAddrRange var4 var0))))))))
(assert (forall ((var0 Int) (var1 Int) (var2 Int) (var3 AddrRange) (var4 AddrRange) (var5 AddrRange) (var6 AddrRange) (var7 AddrRange) (var8 Heap)) (not (and (inv_main29 var8 var7 var6 var5 var4 var3 var2 var1 var0) (not (is-O_Int (read var8 (nthAddrRange var4 var1))))))))
(assert (forall ((var0 Int) (var1 Int) (var2 Int) (var3 AddrRange) (var4 AddrRange) (var5 AddrRange) (var6 AddrRange) (var7 AddrRange) (var8 Heap)) (not (and (inv_main29 var8 var7 var6 var5 var4 var3 var2 var1 var0) (and (is-O_Int (read var8 (nthAddrRange var4 var1))) (not (within var4 (nthAddrRange var4 var1))))))))
(assert (forall ((var0 Int) (var1 Int) (var2 Int) (var3 AddrRange) (var4 AddrRange) (var5 AddrRange) (var6 AddrRange) (var7 AddrRange) (var8 Heap)) (not (and (inv_main29 var8 var7 var6 var5 var4 var3 var2 var1 var0) (and (is-O_Int (read var8 (nthAddrRange var4 var1))) (not (is-O_Int (read var8 (nthAddrRange var4 var1)))))))))
(assert (forall ((var0 Int) (var1 Int) (var2 AddrRange) (var3 AddrRange) (var4 AddrRange) (var5 AddrRange) (var6 AddrRange) (var7 Heap)) (not (and (inv_main32 var7 var6 var5 var4 var3 var2 var1 var0) (not (is-O_Int (read var7 (nthAddrRange var3 var0))))))))
(assert (forall ((var0 Int) (var1 Int) (var2 AddrRange) (var3 AddrRange) (var4 AddrRange) (var5 AddrRange) (var6 AddrRange) (var7 Heap)) (not (and (inv_main32 var7 var6 var5 var4 var3 var2 var1 var0) (and (is-O_Int (read var7 (nthAddrRange var3 var0))) (not (within var3 (nthAddrRange var3 var0))))))))
(assert (forall ((var0 Int) (var1 Int) (var2 Int) (var3 AddrRange) (var4 AddrRange) (var5 AddrRange) (var6 AddrRange) (var7 AddrRange) (var8 Heap)) (not (and (inv_main34 var8 var7 var6 var5 var4 var3 var2 var1 var0) (not (is-O_Int (read var8 (nthAddrRange var3 var1))))))))
(assert (forall ((var0 Int) (var1 Int) (var2 Int) (var3 AddrRange) (var4 AddrRange) (var5 AddrRange) (var6 AddrRange) (var7 AddrRange) (var8 Heap)) (not (and (inv_main34 var8 var7 var6 var5 var4 var3 var2 var1 var0) (and (is-O_Int (read var8 (nthAddrRange var3 var1))) (not (within var3 (nthAddrRange var3 var1))))))))
(assert (forall ((var0 Int) (var1 Int) (var2 Int) (var3 AddrRange) (var4 AddrRange) (var5 AddrRange) (var6 AddrRange) (var7 AddrRange) (var8 Heap)) (not (and (inv_main34 var8 var7 var6 var5 var4 var3 var2 var1 var0) (and (is-O_Int (read var8 (nthAddrRange var3 var1))) (not (is-O_Int (read var8 (nthAddrRange var3 var1)))))))))
(assert (forall ((var0 Int) (var1 Int) (var2 Int) (var3 AddrRange) (var4 AddrRange) (var5 AddrRange) (var6 AddrRange) (var7 AddrRange) (var8 Heap)) (not (and (inv_main38 var8 var7 var6 var5 var4 var3 var2 var1 var0) (not (is-O_Int (read var8 (nthAddrRange var7 var0))))))))
(assert (forall ((var0 Int) (var1 Int) (var2 Int) (var3 AddrRange) (var4 AddrRange) (var5 AddrRange) (var6 AddrRange) (var7 AddrRange) (var8 Heap)) (not (and (inv_main38 var8 var7 var6 var5 var4 var3 var2 var1 var0) (not (within var7 (nthAddrRange var7 var0)))))))
(assert (forall ((var0 Int) (var1 Int) (var2 Int) (var3 AddrRange) (var4 AddrRange) (var5 AddrRange) (var6 AddrRange) (var7 AddrRange) (var8 Heap)) (not (and (inv_main38 var8 var7 var6 var5 var4 var3 var2 var1 var0) (not (is-O_Int (read var8 (nthAddrRange var3 var0))))))))
(assert (forall ((var0 Int) (var1 Int) (var2 Int) (var3 AddrRange) (var4 AddrRange) (var5 AddrRange) (var6 AddrRange) (var7 AddrRange) (var8 Heap)) (not (and (inv_main38 var8 var7 var6 var5 var4 var3 var2 var1 var0) (not (within var3 (nthAddrRange var3 var0)))))))
(assert (forall ((var0 Int) (var1 Int) (var2 Int) (var3 AddrRange) (var4 AddrRange) (var5 AddrRange) (var6 AddrRange) (var7 AddrRange) (var8 Heap)) (not (and (inv_main38 var8 var7 var6 var5 var4 var3 var2 var1 var0) (not (is-O_Int (read var8 (nthAddrRange var7 var0))))))))
(assert (forall ((var0 Int) (var1 Int) (var2 Int) (var3 AddrRange) (var4 AddrRange) (var5 AddrRange) (var6 AddrRange) (var7 AddrRange) (var8 Heap)) (not (and (inv_main38 var8 var7 var6 var5 var4 var3 var2 var1 var0) (and (is-O_Int (read var8 (nthAddrRange var7 var0))) (not (within var7 (nthAddrRange var7 var0))))))))
(assert (forall ((var0 Int) (var1 Int) (var2 Int) (var3 AddrRange) (var4 AddrRange) (var5 AddrRange) (var6 AddrRange) (var7 AddrRange) (var8 Heap)) (not (and (inv_main38 var8 var7 var6 var5 var4 var3 var2 var1 var0) (and (is-O_Int (read var8 (nthAddrRange var7 var0))) (not (is-O_Int (read var8 (nthAddrRange var3 var0)))))))))
(assert (forall ((var0 Int) (var1 Int) (var2 Int) (var3 AddrRange) (var4 AddrRange) (var5 AddrRange) (var6 AddrRange) (var7 AddrRange) (var8 Heap)) (not (and (inv_main38 var8 var7 var6 var5 var4 var3 var2 var1 var0) (and (and (is-O_Int (read var8 (nthAddrRange var7 var0))) (is-O_Int (read var8 (nthAddrRange var3 var0)))) (not (within var3 (nthAddrRange var3 var0))))))))
(assert (forall ((var0 Int) (var1 Int) (var2 Int) (var3 AddrRange) (var4 AddrRange) (var5 AddrRange) (var6 AddrRange) (var7 AddrRange) (var8 Heap)) (not (and (inv_main38 var8 var7 var6 var5 var4 var3 var2 var1 var0) (and (and (is-O_Int (read var8 (nthAddrRange var7 var0))) (is-O_Int (read var8 (nthAddrRange var3 var0)))) (not (= (getInt (read var8 (nthAddrRange var7 var0))) (getInt (read var8 (nthAddrRange var3 var0))))))))))
(check-sat)
